30
0 1 0.66 0.31
0 2 0.62 0.33
0 3 0.62 0.28
0 4 0.83 0.28
0 5 0.58 0.15
0 6 0.56 0.42
0 7 0.38 0.25
0 8 0.53 0.27
0 9 0.62 0.3
0 10 0.48 0.16
0 11 0.3 0.24
0 12 0.56 0.3
0 13 0.72 0.14
0 14 0.84 0.23
0 15 0.49 0.34
0 16 0.54 0.24
0 17 0.46 0.2
0 18 0.68 0.14
0 19 0.85 0.33
0 20 0.6 0.24
0 21 0.66 0.26
0 22 0.52 0.02
0 23 0.68 0.26
0 24 0.6 0.36
0 25 0.67 0.36
0 26 0.74 0.28
0 27 0.58 0.13
0 28 0.83 0.28
0 29 0.66 0.15
1 2 0.43 0.08
1 3 0.67 0.28
1 4 0.76 0.24
1 5 0.39 0.36
1 6 0.6 0.22
1 7 0.56 0.34
1 8 0.38 0.24
1 9 0.76 0.28
1 10 0.78 0.39
1 11 0.42 0.12
1 12 0.46 0.32
1 13 0.58 0.32
1 14 0.64 0.24
1 15 0.68 0.28
1 16 0.48 0.24
1 17 0.56 0.36
1 18 0.4 0.28
1 19 0.65 0.14
1 20 0.42 0.38
1 21 0.33 0.3
1 22 0.6 0.29
1 23 0.74 0.26
1 24 0.71 0.32
1 25 0.48 0.16
1 26 0.44 0.2
1 27 0.52 0.3
1 28 0.42 0.24
1 29 0.61 0.16
2 3 0.54 0.3
2 4 0.64 0.25
2 5 0.68 0.28
2 6 0.56 0.19
2 7 0.78 0.26
2 8 0.79 0.22
2 9 0.56 0.26
2 10 0.5 0.34
2 11 0.8 0.1
2 12 0.64 0.35
2 13 0.48 0.31
2 14 0.7 0.26
2 15 0.46 0.26
2 16 0.7 0.26
2 17 0.6 0.32
2 18 0.62 0.2
2 19 0.49 0.06
2 20 0.62 0.3
2 21 0.66 0.34
2 22 0.82 0.31
2 23 0.42 0.27
2 24 0.4 0.3
2 25 0.66 0.24
2 26 0.32 0.18
2 27 0.62 0.36
2 28 0.5 0.26
2 29 0.72 0.18
3 4 0.46 0.12
3 5 0.56 0.19
3 6 0.62 0.29
3 7 0.24 0.11
3 8 0.54 0.24
3 9 0.59 0.22
3 10 0.55 0.2
3 11 0.41 0.2
3 12 0.51 0.22
3 13 0.57 0.23
3 14 0.53 0.26
3 15 0.46 0.24
3 16 0.52 0.04
3 17 0.48 0.12
3 18 0.54 0.24
3 19 0.62 0.25
3 20 0.68 0.22
3 21 0.68 0.37
3 22 0.64 0.3
3 23 0.66 0.14
3 24 0.16 0.16
3 25 0.34 0.23
3 26 0.7 0.25
3 27 0.74 0.23
3 28 0.77 0.27
3 29 0.78 0.31
4 5 0.7 0.28
4 6 0.42 0.26
4 7 0.66 0.23
4 8 0.66 0.24
4 9 0.75 0.22
4 10 0.59 0.3
4 11 0.78 0.32
4 12 0.71 0.1
4 13 0.43 0.29
4 14 0.46 0.14
4 15 0.34 0.12
4 16 0.68 0.16
4 17 0.6 0.12
4 18 0.42 0.2
4 19 0.68 0.31
4 20 0.66 0.18
4 21 0.6 0.25
4 22 0.54 0.26
4 23 0.52 0.02
4 24 0.62 0.23
4 25 0.8 0.24
4 26 0.32 0.2
4 27 0.46 0.25
4 28 0.74 0.23
4 29 0.43 0.19
5 6 0.58 0.27
5 7 0.6 0.29
5 8 0.68 0.33
5 9 0.66 0.24
5 10 0.51 0.24
5 11 0.63 0.31
5 12 0.46 0.23
5 13 0.57 0.04
5 14 0.67 0.28
5 15 0.55 0.26
5 16 0.29 0.15
5 17 0.29 0.24
5 18 0.28 0.15
5 19 0.38 0.22
5 20 0.72 0.1
5 21 0.66 0.29
5 22 0.39 0.13
5 23 0.53 0.26
5 24 0.42 0.35
5 25 0.61 0.21
5 26 0.52 0.29
5 27 0.78 0.19
5 28 0.56 0.28
5 29 0.58 0.2
6 7 0.38 0.27
6 8 0.52 0.29
6 9 0.75 0.37
6 10 0.62 0.41
6 11 0.52 0.29
6 12 0.91 0.32
6 13 0.62 0.31
6 14 0.72 0.22
6 15 0.61 0.36
6 16 0.48 0.26
6 17 0.78 0.27
6 18 0.83 0.28
6 19 0.42 0.13
6 20 0.48 0.34
6 21 0.74 0.41
6 22 0.5 0.4
6 23 0.66 0.24
6 24 0.64 0.41
6 25 0.48 0.06
6 26 0.58 0.37
6 27 0.72 0.35
6 28 0.75 0.14
6 29 0.36 0.3
7 8 0.52 0.26
7 9 0.37 0.23
7 10 0.66 0.31
7 11 0.65 0.31
7 12 0.75 0.22
7 13 0.81 0.29
7 14 0.77 0.37
7 15 0.7 0.35
7 16 0.76 0.15
7 17 0.6 0.23
7 18 0.48 0.18
7 19 0.76 0.32
7 20 0.44 0.22
7 21 0.47 0.39
7 22 0.77 0.23
7 23 0.52 0.25
7 24 0.4 0.27
7 25 0.58 0.24
7 26 0.64 0.32
7 27 0.72 0.12
7 28 0.53 0.16
7 29 0.74 0.36
8 9 0.38 0.18
8 10 0.64 0.3
8 11 0.28 0.12
8 12 0.51 0.22
8 13 0.64 0.33
8 14 0.86 0.34
8 15 0.33 0.31
8 16 0.57 0.28
8 17 0.59 0.12
8 18 0.73 0.22
8 19 0.4 0.16
8 20 0.64 0.32
8 21 0.58 0.37
8 22 0.52 0.25
8 23 0.56 0.22
8 24 0.7 0.32
8 25 0.59 0.32
8 26 0.54 0.33
8 27 0.2 0.14
8 28 0.72 0.28
8 29 0.55 0.32
9 10 0.74 0.4
9 11 0.5 0.16
9 12 0.5 0.2
9 13 0.84 0.28
9 14 0.62 0.32
9 15 0.69 0.34
9 16 0.66 0.26
9 17 0.44 0.1
9 18 0.62 0.22
9 19 0.78 0.32
9 20 0.81 0.32
9 21 0.52 0.41
9 22 0.69 0.28
9 23 0.38 0.2
9 24 0.5 0.33
9 25 0.48 0.31
9 26 0.46 0.31
9 27 0.58 0.22
9 28 0.4 0.23
9 29 0.68 0.37
10 11 0.76 0.35
10 12 0.5 0.33
10 13 0.8 0.2
10 14 0.58 0.39
10 15 0.72 0.18
10 16 0.45 0.19
10 17 0.8 0.3
10 18 0.63 0.3
10 19 0.7 0.28
10 20 0.68 0.34
10 21 0.49 0.32
10 22 0.52 0.18
10 23 0.51 0.32
10 24 0.39 0.2
10 25 0.72 0.39
10 26 0.76 0.24
10 27 0.82 0.29
10 28 0.69 0.44
10 29 0.68 0.31
11 12 0.59 0.26
11 13 0.54 0.3
11 14 0.72 0.36
11 15 0.58 0.32
11 16 0.34 0.16
11 17 0.59 0.24
11 18 0.72 0.3
11 19 0.68 0.16
11 20 0.54 0.3
11 21 0.63 0.25
11 22 0.24 0.22
11 23 0.84 0.34
11 24 0.48 0.2
11 25 0.37 0.24
11 26 0.5 0.24
11 27 0.48 0.26
11 28 0.84 0.16
11 29 0.66 0.28
12 13 0.76 0.19
12 14 0.77 0.2
12 15 0.64 0.22
12 16 0.53 0.26
12 17 0.38 0.1
12 18 0.57 0.22
12 19 0.49 0.36
12 20 0.82 0.24
12 21 0.5 0.35
12 22 0.69 0.28
12 23 0.47 0.08
12 24 0.5 0.13
12 25 0.81 0.34
12 26 0.66 0.3
12 27 0.32 0.23
12 28 0.76 0.29
12 29 0.77 0.25
13 14 0.62 0.24
13 15 0.37 0.22
13 16 0.68 0.19
13 17 0.57 0.23
13 18 0.41 0.11
13 19 0.69 0.26
13 20 0.66 0.14
13 21 0.81 0.33
13 22 0.72 0.12
13 23 0.56 0.27
13 24 0.41 0.32
13 25 0.81 0.25
13 26 0.66 0.25
13 27 0.44 0.23
13 28 0.44 0.24
13 29 0.26 0.16
14 15 0.54 0.26
14 16 0.62 0.3
14 17 0.71 0.22
14 18 0.54 0.34
14 19 0.51 0.26
14 20 0.64 0.28
14 21 0.52 0.38
14 22 0.7 0.21
14 23 0.3 0.12
14 24 0.6 0.33
14 25 0.62 0.16
14 26 0.52 0.34
14 27 0.69 0.3
14 28 0.5 0.24
14 29 0.36 0.08
15 16 0.53 0.28
15 17 0.26 0.24
15 18 0.64 0.22
15 19 0.64 0.32
15 20 0.44 0.3
15 21 0.63 0.37
15 22 0.8 0.34
15 23 0.5 0.14
15 24 0.55 0.35
15 25 0.56 0.36
15 26 0.29 0.08
15 27 0.52 0.37
15 28 0.68 0.35
15 29 0.56 0.31
16 17 0.58 0.16
16 18 0.57 0.28
16 19 0.67 0.29
16 20 0.55 0.25
16 21 0.56 0.41
16 22 0.54 0.26
16 23 0.82 0.18
16 24 0.68 0.2
16 25 0.32 0.2
16 26 0.4 0.24
16 27 0.76 0.27
16 28 0.6 0.28
16 29 0.84 0.35
17 18 0.57 0.12
17 19 0.6 0.28
17 20 0.63 0.22
17 21 0.62 0.35
17 22 0.54 0.18
17 23 0.76 0.1
17 24 0.58 0.23
17 25 0.72 0.33
17 26 0.28 0.21
17 27 0.7 0.13
17 28 0.42 0.26
17 29 0.52 0.27
18 19 0.66 0.26
18 20 0.7 0.1
18 21 0.4 0.33
18 22 0.67 0.16
18 23 0.6 0.22
18 24 0.68 0.35
18 25 0.79 0.22
18 26 0.35 0.14
18 27 0.58 0.25
18 28 0.32 0.14
18 29 0.67 0.27
19 20 0.69 0.32
19 21 0.32 0.28
19 22 0.58 0.31
19 23 0.72 0.33
19 24 0.47 0.28
19 25 0.51 0.19
19 26 0.54 0.24
19 27 0.6 0.3
19 28 0.64 0.27
19 29 0.48 0.18
20 21 0.57 0.33
20 22 0.78 0.23
20 23 0.63 0.16
20 24 0.7 0.37
20 25 0.43 0.31
20 26 0.35 0.24
20 27 0.52 0.29
20 28 0.84 0.24
20 29 0.56 0.28
21 22 0.58 0.24
21 23 0.48 0.27
21 24 0.62 0.36
21 25 0.62 0.42
21 26 0.34 0.3
21 27 0.56 0.35
21 28 0.66 0.34
21 29 0.78 0.37
22 23 0.73 0.24
22 24 0.68 0.38
22 25 0.61 0.34
22 26 0.71 0.3
22 27 0.56 0.11
22 28 0.9 0.3
22 29 0.72 0.13
23 24 0.5 0.21
23 25 0.8 0.26
23 26 0.52 0.22
23 27 0.48 0.23
23 28 0.57 0.21
23 29 0.3 0.17
24 25 0.5 0.39
24 26 0.72 0.41
24 27 0.73 0.36
24 28 0.85 0.36
24 29 0.67 0.26
25 26 0.72 0.36
25 27 0.79 0.36
25 28 0.47 0.08
25 29 0.68 0.24
26 27 0.6 0.34
26 28 0.65 0.28
26 29 0.5 0.36
27 28 0.82 0.28
27 29 0.64 0.24
28 29 0.62 0.32
